10	5
0	1	1
1	2	10	2
2	1	3
3	1	4
4	2	9	6
5	2	8	7
6	1	5
7	1	11
8	1	11
9	1	11
10	1	11
11	0
0	0	0	0	0	0	0
1	9	5	3	4	0	4
2	3	3	0	0	0	1
3	2	0	4	3	3	0
4	10	3	0	4	0	0
5	3	2	0	2	3	3
6	10	0	0	0	0	1
7	8	0	4	0	0	5
8	9	0	3	3	3	0
9	10	0	0	1	0	1
10	6	0	3	3	0	0
11	0	0	0	0	0	0
5	6	6	4	6
